NAME : kroE100-C-3-1-a.22121.tour
COMMENT : Length = 22121
COMMENT : Found by LKH-3 [Keld Helsgaun] Tue Jul 30 13:14:12 2024
TYPE : TOUR
DIMENSION : 100
TOUR_SECTION
1
83
47
3
46
26
79
16
73
61
71
81
89
14
52
44
72
68
38
33
22
39
43
86
19
94
18
24
29
100
78
53
34
37
77
85
96
11
2
4
70
6
55
91
93
13
75
92
82
67
27
41
87
9
31
66
30
90
48
42
5
8
65
97
57
80
10
60
50
49
20
15
56
62
84
17
99
45
54
25
40
35
88
63
76
12
32
58
64
23
28
36
95
59
98
51
69
21
7
74
-1
EOF
